============================[ Problem Statistics ]=============================|                                                                             ||  Number of variables:          4242                                         ||  Number of clauses:           10054                                         ||  Parse time:                   0.44 s                                       ||                                                                             |============================[ Search Statistics ]==============================| Conflicts |          ORIGINAL         |          LEARNT          | Progress ||           |    Vars  Clauses Literals |    Limit  Clauses Lit/Cl |          |===============================================================================|       100 |    1591     6259   705470 |     2294      100     53 | 62.501 % ||       250 |    1591     6259   705470 |     2524      250     75 | 62.495 % |===============================================================================restarts              : 3conflicts             : 251            (372 /sec)decisions             : 517            (0.00 % random) (766 /sec)propagations          : 11756          (17416 /sec)conflict literals     : 18968          (94.90 % deleted)CPU time              : 0.675 sSATISFIABLE